SCIP Status        : problem creation / modification
Total Time         :       0.01
  reading          :       0.01
Original Problem   :
  Problem name     : main4.zpl
  Variables        : 810 (810 binary, 0 integer, 0 implicit integer, 0 continuous)
  Constraints      : 0 initial, 890 maximal
  Objective        : minimize, 810 non-zeros (abs.min = 0.00663, abs.max = 5700)
